GLPSOL: GLPK LP/MIP Solver, v4.52
Parameter(s) specified in the command line:
 --model final.glpk -d ../instances/glpk_no_top/test2.wcnf --output solutions_no_top/test2.wcnf.sol
 --tmlim 3600
Reading model section from final.glpk...
29 lines were read
Reading data section from ../instances/glpk_no_top/test2.wcnf...
68 lines were read
Generating weightSum...
Generating softR...
Generating hardR...
Model has been successfully generated
GLPK Integer Optimizer, v4.52
20 rows, 31 columns, 78 non-zeros
31 integer variables, all of which are binary
Preprocessing...
19 hidden covering inequaliti(es) were detected
19 rows, 31 columns, 59 non-zeros
31 integer variables, all of which are binary
Scaling...
 A: min|aij| =  1.000e+00  max|aij| =  1.000e+00  ratio =  1.000e+00
Problem data seem to be well scaled
Constructing initial basis...
Size of triangular part is 19
Solving LP relaxation...
GLPK Simplex Optimizer, v4.52
19 rows, 31 columns, 59 non-zeros
*     0: obj =   0.000000000e+00  infeas =  0.000e+00 (0)
*    24: obj =   1.180000000e+02  infeas =  0.000e+00 (0)
OPTIMAL LP SOLUTION FOUND
Integer optimization begins...
+    24: mip =     not found yet <=              +inf        (1; 0)
+    28: >>>>>   1.180000000e+02 <=   1.180000000e+02   0.0% (1; 0)
+    28: mip =   1.180000000e+02 <=     tree is empty   0.0% (0; 1)
INTEGER OPTIMAL SOLUTION FOUND
Time used:   0.0 secs
Memory used: 0.2 Mb (195686 bytes)
Writing MIP solution to `solutions_no_top/test2.wcnf.sol'...
